rcpsp/heur_output_or_constraints/Log=10/heurj60.txt
encoding rcpsp/j60.sm/j6017_3.sm nv: 136136 nc: 365095 enctime: 5.10
encoding rcpsp/j60.sm/j6017_3.sm nv: 34408 nc: 90103 enctime: 0.66
c File: j6017_3.smnaiveor10.wcnf
c optimal
c final solution cost: 80
c CPU time: 3.397364
s OPTIMUM FOUND

c File: j6017_3.smor10.wcnf
c optimal
c final solution cost: 80
c CPU time: 0.534978
s OPTIMUM FOUND


rcpsp/heur_output_or_constraints/Log=10/heurj60.txt
encoding rcpsp/j60.sm/j6017_4.sm nv: 113526 nc: 285420 enctime: 3.65
encoding rcpsp/j60.sm/j6017_4.sm nv: 30051 nc: 73920 enctime: 0.39
c File: j6017_4.smnaiveor10.wcnf
c optimal
c final solution cost: 71
c CPU time: 4.782391
s OPTIMUM FOUND

c File: j6017_4.smor10.wcnf
c optimal
c final solution cost: 71
c CPU time: 0.145959
s OPTIMUM FOUND


rcpsp/heur_output_or_constraints/Log=10/heurj60.txt
encoding rcpsp/j60.sm/j6017_5.sm nv: 115368 nc: 274142 enctime: 3.16
encoding rcpsp/j60.sm/j6017_5.sm nv: 25498 nc: 59142 enctime: 0.30
c File: j6017_5.smnaiveor10.wcnf
c optimal
c final solution cost: 55
c CPU time: 1.302716
s OPTIMUM FOUND

c File: j6017_5.smor10.wcnf
c optimal
c final solution cost: 55
c CPU time: 0.171960
s OPTIMUM FOUND


rcpsp/heur_output_or_constraints/Log=10/heurj60.txt
encoding rcpsp/j60.sm/j6017_6.sm nv: 123968 nc: 302443 enctime: 3.65
encoding rcpsp/j60.sm/j6017_6.sm nv: 29952 nc: 71471 enctime: 0.52
c File: j6017_6.smnaiveor10.wcnf
c optimal
c final solution cost: 62
c CPU time: 1.623811
s OPTIMUM FOUND

c File: j6017_6.smor10.wcnf
c optimal
c final solution cost: 62
c CPU time: 0.152616
s OPTIMUM FOUND


rcpsp/heur_output_or_constraints/Log=10/heurj60.txt
encoding rcpsp/j60.sm/j6017_7.sm nv: 128880 nc: 344509 enctime: 4.71
encoding rcpsp/j60.sm/j6017_7.sm nv: 32760 nc: 85519 enctime: 0.63
c File: j6017_7.smnaiveor10.wcnf
c optimal
c final solution cost: 80
c CPU time: 7.977229
s OPTIMUM FOUND

c File: j6017_7.smor10.wcnf
c optimal
c final solution cost: 80
c CPU time: 0.192920
s OPTIMUM FOUND


rcpsp/heur_output_or_constraints/Log=10/heurj60.txt
encoding rcpsp/j60.sm/j6017_8.sm nv: 119160 nc: 313295 enctime: 4.10
encoding rcpsp/j60.sm/j6017_8.sm nv: 32760 nc: 84335 enctime: 0.61
c File: j6017_8.smnaiveor10.wcnf
c optimal
c final solution cost: 82
c CPU time: 4.679524
s OPTIMUM FOUND

c File: j6017_8.smor10.wcnf
c optimal
c final solution cost: 82
c CPU time: 2.610775
s OPTIMUM FOUND


rcpsp/heur_output_or_constraints/Log=10/heurj60.txt
encoding rcpsp/j60.sm/j6017_9.sm nv: 112081 nc: 295381 enctime: 3.90
encoding rcpsp/j60.sm/j6017_9.sm nv: 27413 nc: 70413 enctime: 0.37
c File: j6017_9.smnaiveor10.wcnf
c optimal
c final solution cost: 72
c CPU time: 6.803530
s OPTIMUM FOUND

c File: j6017_9.smor10.wcnf
c optimal
c final solution cost: 72
c CPU time: 0.185046
s OPTIMUM FOUND


rcpsp/heur_output_or_constraints/Log=10/heurj60.txt
encoding rcpsp/j60.sm/j601_7.sm nv: 122436 nc: 315551 enctime: 3.97
encoding rcpsp/j60.sm/j601_7.sm nv: 28282 nc: 70961 enctime: 0.50
c File: j601_7.smnaiveor10.wcnf
c optimal
c final solution cost: 72
c CPU time: 3.406155
s OPTIMUM FOUND

c File: j601_7.smor10.wcnf
c optimal
c final solution cost: 72
c CPU time: 0.363068
s OPTIMUM FOUND


rcpsp/heur_output_or_constraints/Log=10/heurj60.txt
encoding rcpsp/j60.sm/j6018_10.sm nv: 173568 nc: 444599 enctime: 6.01
encoding rcpsp/j60.sm/j6018_10.sm nv: 46556 nc: 116953 enctime: 0.84
c File: j6018_10.smnaiveor10.wcnf
c optimal
c final solution cost: 88
c CPU time: 2.012150
s OPTIMUM FOUND

c File: j6018_10.smor10.wcnf
c optimal
c final solution cost: 88
c CPU time: 0.266335
s OPTIMUM FOUND


rcpsp/heur_output_or_constraints/Log=10/heurj60.txt
encoding rcpsp/j60.sm/j6018_1.sm nv: 139527 nc: 349048 enctime: 4.32
encoding rcpsp/j60.sm/j6018_1.sm nv: 34777 nc: 85048 enctime: 0.61
c File: j6018_1.smnaiveor10.wcnf
c optimal
c final solution cost: 73
c CPU time: 1.060886
s OPTIMUM FOUND

c File: j6018_1.smor10.wcnf
c optimal
c final solution cost: 73
c CPU time: 0.109371
s OPTIMUM FOUND


rcpsp/heur_output_or_constraints/Log=10/heurj60.txt
encoding rcpsp/j60.sm/j6018_2.sm nv: 167670 nc: 410560 enctime: 5.14
encoding rcpsp/j60.sm/j6018_2.sm nv: 34506 nc: 82308 enctime: 0.58
c File: j6018_2.smnaiveor10.wcnf
c optimal
c final solution cost: 69
c CPU time: 1.173502
s OPTIMUM FOUND

c File: j6018_2.smor10.wcnf
c optimal
c final solution cost: 69
c CPU time: 0.092774
s OPTIMUM FOUND


rcpsp/heur_output_or_constraints/Log=10/heurj60.txt
encoding rcpsp/j60.sm/j6018_3.sm nv: 138993 nc: 342416 enctime: 4.24
encoding rcpsp/j60.sm/j6018_3.sm nv: 30310 nc: 72842 enctime: 0.36
c File: j6018_3.smnaiveor10.wcnf
c optimal
c final solution cost: 69
c CPU time: 1.170292
s OPTIMUM FOUND

c File: j6018_3.smor10.wcnf
c optimal
c final solution cost: 69
c CPU time: 0.080835
s OPTIMUM FOUND


rcpsp/heur_output_or_constraints/Log=10/heurj60.txt
encoding rcpsp/j60.sm/j6018_4.sm nv: 171308 nc: 437379 enctime: 5.64
encoding rcpsp/j60.sm/j6018_4.sm nv: 31188 nc: 77159 enctime: 0.56
c File: j6018_4.smnaiveor10.wcnf
c optimal
c final solution cost: 65
c CPU time: 2.206106
s OPTIMUM FOUND

c File: j6018_4.smor10.wcnf
c optimal
c final solution cost: 65
c CPU time: 0.119595
s OPTIMUM FOUND


rcpsp/heur_output_or_constraints/Log=10/heurj60.txt
encoding rcpsp/j60.sm/j6018_5.sm nv: 141036 nc: 346022 enctime: 4.18
encoding rcpsp/j60.sm/j6018_5.sm nv: 34602 nc: 83096 enctime: 0.58
c File: j6018_5.smnaiveor10.wcnf
c optimal
c final solution cost: 76
c CPU time: 1.033964
s OPTIMUM FOUND

c File: j6018_5.smor10.wcnf
c optimal
c final solution cost: 76
c CPU time: 0.100284
s OPTIMUM FOUND


rcpsp/heur_output_or_constraints/Log=10/heurj60.txt
encoding rcpsp/j60.sm/j6018_6.sm nv: 155685 nc: 371973 enctime: 4.44
encoding rcpsp/j60.sm/j6018_6.sm nv: 30555 nc: 71145 enctime: 0.50
c File: j6018_6.smnaiveor10.wcnf
c optimal
c final solution cost: 61
c CPU time: 1.130594
s OPTIMUM FOUND

c File: j6018_6.smor10.wcnf
c optimal
c final solution cost: 61
c CPU time: 0.093910
s OPTIMUM FOUND


rcpsp/heur_output_or_constraints/Log=10/heurj60.txt
encoding rcpsp/j60.sm/j6018_7.sm nv: 145820 nc: 351198 enctime: 4.22
encoding rcpsp/j60.sm/j6018_7.sm nv: 41400 nc: 98093 enctime: 0.69
c File: j6018_7.smnaiveor10.wcnf
c optimal
c final solution cost: 81
c CPU time: 1.029291
s OPTIMUM FOUND

c File: j6018_7.smor10.wcnf
c optimal
c final solution cost: 81
c CPU time: 0.129685
s OPTIMUM FOUND


rcpsp/heur_output_or_constraints/Log=10/heurj60.txt
encoding rcpsp/j60.sm/j6018_8.sm nv: 151970 nc: 375507 enctime: 4.61
encoding rcpsp/j60.sm/j6018_8.sm nv: 28665 nc: 68735 enctime: 0.51
c File: j6018_8.smnaiveor10.wcnf
c optimal
c final solution cost: 60
c CPU time: 1.357672
s OPTIMUM FOUND

c File: j6018_8.smor10.wcnf
c optimal
c final solution cost: 60
c CPU time: 0.091269
s OPTIMUM FOUND


rcpsp/heur_output_or_constraints/Log=10/heurj60.txt
encoding rcpsp/j60.sm/j6018_9.sm nv: 138689 nc: 345647 enctime: 4.30
encoding rcpsp/j60.sm/j6018_9.sm nv: 29330 nc: 71075 enctime: 0.51
c File: j6018_9.smnaiveor10.wcnf
c optimal
c final solution cost: 69
c CPU time: 1.041118
s OPTIMUM FOUND

c File: j6018_9.smor10.wcnf
c optimal
c final solution cost: 69
c CPU time: 0.081445
s OPTIMUM FOUND


rcpsp/heur_output_or_constraints/Log=10/heurj60.txt
encoding rcpsp/j60.sm/j601_8.sm nv: 135772 nc: 355763 enctime: 4.45
encoding rcpsp/j60.sm/j601_8.sm nv: 29467 nc: 75038 enctime: 0.52
c File: j601_8.smnaiveor10.wcnf
c optimal
c final solution cost: 74
c CPU time: 1.766358
s OPTIMUM FOUND

c File: j601_8.smor10.wcnf
c optimal
c final solution cost: 74
c CPU time: 0.133498
s OPTIMUM FOUND


rcpsp/heur_output_or_constraints/Log=10/heurj60.txt
encoding rcpsp/j60.sm/j6019_10.sm nv: 188720 nc: 446669 enctime: 5.15
encoding rcpsp/j60.sm/j6019_10.sm nv: 43120 nc: 100089 enctime: 0.68
c File: j6019_10.smnaiveor10.wcnf
c optimal
c final solution cost: 69
c CPU time: 1.120957
s OPTIMUM FOUND

c File: j6019_10.smor10.wcnf
c optimal
c final solution cost: 69
c CPU time: 0.109945
s OPTIMUM FOUND


rcpsp/heur_output_or_constraints/Log=10/heurj60.txt
encoding rcpsp/j60.sm/j6019_1.sm nv: 179958 nc: 425779 enctime: 5.08
encoding rcpsp/j60.sm/j6019_1.sm nv: 33642 nc: 77525 enctime: 0.55
c File: j6019_1.smnaiveor10.wcnf
c optimal
c final solution cost: 62
c CPU time: 1.122643
s OPTIMUM FOUND

c File: j6019_1.smor10.wcnf
c optimal
c final solution cost: 62
c CPU time: 0.077177
s OPTIMUM FOUND


rcpsp/heur_output_or_constraints/Log=10/heurj60.txt
encoding rcpsp/j60.sm/j6019_2.sm nv: 188123 nc: 469297 enctime: 5.96
encoding rcpsp/j60.sm/j6019_2.sm nv: 38423 nc: 93397 enctime: 0.67
c File: j6019_2.smnaiveor10.wcnf
c optimal
c final solution cost: 69
c CPU time: 1.701127
s OPTIMUM FOUND

c File: j6019_2.smor10.wcnf
c optimal
c final solution cost: 69
c CPU time: 0.156215
s OPTIMUM FOUND


rcpsp/heur_output_or_constraints/Log=10/heurj60.txt
encoding rcpsp/j60.sm/j6019_3.sm nv: 163917 nc: 403026 enctime: 5.04
encoding rcpsp/j60.sm/j6019_3.sm nv: 39228 nc: 94374 enctime: 0.66
c File: j6019_3.smnaiveor10.wcnf
c optimal
c final solution cost: 83
c CPU time: 1.242876
s OPTIMUM FOUND

c File: j6019_3.smor10.wcnf
c optimal
c final solution cost: 83
c CPU time: 0.120135
s OPTIMUM FOUND


rcpsp/heur_output_or_constraints/Log=10/heurj60.txt
encoding rcpsp/j60.sm/j6019_4.sm nv: 186296 nc: 429203 enctime: 4.84
encoding rcpsp/j60.sm/j6019_4.sm nv: 38544 nc: 86894 enctime: 0.59
c File: j6019_4.smnaiveor10.wcnf
c optimal
c final solution cost: 65
c CPU time: 1.205712
s OPTIMUM FOUND

c File: j6019_4.smor10.wcnf
c optimal
c final solution cost: 65
c CPU time: 0.092062
s OPTIMUM FOUND


rcpsp/heur_output_or_constraints/Log=10/heurj60.txt
encoding rcpsp/j60.sm/j6019_5.sm nv: 157740 nc: 382904 enctime: 4.59
encoding rcpsp/j60.sm/j6019_5.sm nv: 31548 nc: 74552 enctime: 0.53
c File: j6019_5.smnaiveor10.wcnf
c optimal
c final solution cost: 65
c CPU time: 1.057714
s OPTIMUM FOUND

c File: j6019_5.smor10.wcnf
c optimal
c final solution cost: 65
c CPU time: 0.077965
s OPTIMUM FOUND


rcpsp/heur_output_or_constraints/Log=10/heurj60.txt
encoding rcpsp/j60.sm/j6019_6.sm nv: 168756 nc: 410368 enctime: 4.99
encoding rcpsp/j60.sm/j6019_6.sm nv: 34932 nc: 82880 enctime: 0.59
c File: j6019_6.smnaiveor10.wcnf
c optimal
c final solution cost: 66
c CPU time: 1.138075
s OPTIMUM FOUND

c File: j6019_6.smor10.wcnf
c optimal
c final solution cost: 66
c CPU time: 0.091424
s OPTIMUM FOUND


rcpsp/heur_output_or_constraints/Log=10/heurj60.txt
encoding rcpsp/j60.sm/j6019_7.sm nv: 175380 nc: 404451 enctime: 4.49
encoding rcpsp/j60.sm/j6019_7.sm nv: 34410 nc: 77553 enctime: 0.54
c File: j6019_7.smnaiveor10.wcnf
c optimal
c final solution cost: 57
c CPU time: 1.126231
s OPTIMUM FOUND

c File: j6019_7.smor10.wcnf
c optimal
c final solution cost: 57
c CPU time: 0.087842
s OPTIMUM FOUND


rcpsp/heur_output_or_constraints/Log=10/heurj60.txt
encoding rcpsp/j60.sm/j6019_8.sm nv: 154380 nc: 375677 enctime: 4.56
encoding rcpsp/j60.sm/j6019_8.sm nv: 31620 nc: 74981 enctime: 0.53
c File: j6019_8.smnaiveor10.wcnf
c optimal
c final solution cost: 67
c CPU time: 1.383238
s OPTIMUM FOUND

c File: j6019_8.smor10.wcnf
c optimal
c final solution cost: 67
c CPU time: 0.094401
s OPTIMUM FOUND


rcpsp/heur_output_or_constraints/Log=10/heurj60.txt
encoding rcpsp/j60.sm/j6019_9.sm nv: 177500 nc: 429240 enctime: 5.28
encoding rcpsp/j60.sm/j6019_9.sm nv: 34500 nc: 81178 enctime: 0.59
c File: j6019_9.smnaiveor10.wcnf
c optimal
c final solution cost: 66
c CPU time: 1.278639
s OPTIMUM FOUND

c File: j6019_9.smor10.wcnf
c optimal
c final solution cost: 66
c CPU time: 0.103112
s OPTIMUM FOUND


rcpsp/heur_output_or_constraints/Log=10/heurj60.txt
encoding rcpsp/j60.sm/j601_9.sm nv: 128625 nc: 330880 enctime: 4.11
encoding rcpsp/j60.sm/j601_9.sm nv: 36000 nc: 90796 enctime: 0.63
c File: j601_9.smnaiveor10.wcnf
c optimal
c final solution cost: 82
c CPU time: 1.053031
s OPTIMUM FOUND

c File: j601_9.smor10.wcnf
c optimal
c final solution cost: 82
c CPU time: 0.130422
s OPTIMUM FOUND


rcpsp/heur_output_or_constraints/Log=10/heurj60.txt
encoding rcpsp/j60.sm/j6020_10.sm nv: 181485 nc: 423657 enctime: 4.90
encoding rcpsp/j60.sm/j6020_10.sm nv: 30525 nc: 69241 enctime: 0.49
c File: j6020_10.smnaiveor10.wcnf
c optimal
c final solution cost: 54
c CPU time: 1.075537
s OPTIMUM FOUND

c File: j6020_10.smor10.wcnf
c optimal
c final solution cost: 54
c CPU time: 0.066153
s OPTIMUM FOUND


rcpsp/heur_output_or_constraints/Log=10/heurj60.txt
encoding rcpsp/j60.sm/j6020_1.sm nv: 205800 nc: 474853 enctime: 5.43
encoding rcpsp/j60.sm/j6020_1.sm nv: 36000 nc: 80917 enctime: 0.57
c File: j6020_1.smnaiveor10.wcnf
c optimal
c final solution cost: 59
c CPU time: 1.190729
s OPTIMUM FOUND

c File: j6020_1.smor10.wcnf
c optimal
c final solution cost: 59
c CPU time: 0.077430
s OPTIMUM FOUND


rcpsp/heur_output_or_constraints/Log=10/heurj60.txt
encoding rcpsp/j60.sm/j6020_2.sm nv: 136697 nc: 319993 enctime: 3.66
encoding rcpsp/j60.sm/j6020_2.sm nv: 37367 nc: 86053 enctime: 0.60
c File: j6020_2.smnaiveor10.wcnf
c optimal
c final solution cost: 78
c CPU time: 0.841760
s OPTIMUM FOUND

c File: j6020_2.smor10.wcnf
c optimal
c final solution cost: 78
c CPU time: 0.098109
s OPTIMUM FOUND


rcpsp/heur_output_or_constraints/Log=10/heurj60.txt
encoding rcpsp/j60.sm/j6020_3.sm nv: 226501 nc: 520337 enctime: 6.01
encoding rcpsp/j60.sm/j6020_3.sm nv: 45430 nc: 102116 enctime: 0.70
c File: j6020_3.smnaiveor10.wcnf
c optimal
c final solution cost: 69
c CPU time: 1.261195
s OPTIMUM FOUND

c File: j6020_3.smor10.wcnf
c optimal
c final solution cost: 69
c CPU time: 0.100331
s OPTIMUM FOUND


rcpsp/heur_output_or_constraints/Log=10/heurj60.txt
encoding rcpsp/j60.sm/j6020_4.sm nv: 221028 nc: 501506 enctime: 5.67
encoding rcpsp/j60.sm/j6020_4.sm nv: 56724 nc: 126782 enctime: 0.88
c File: j6020_4.smnaiveor10.wcnf
c optimal
c final solution cost: 86
c CPU time: 1.197875
s OPTIMUM FOUND

c File: j6020_4.smor10.wcnf
c optimal
c final solution cost: 86
c CPU time: 0.134600
s OPTIMUM FOUND


rcpsp/heur_output_or_constraints/Log=10/heurj60.txt
encoding rcpsp/j60.sm/j6020_5.sm nv: 187824 nc: 443863 enctime: 5.32
encoding rcpsp/j60.sm/j6020_5.sm nv: 39312 nc: 90807 enctime: 0.64
c File: j6020_5.smnaiveor10.wcnf
c optimal
c final solution cost: 71
c CPU time: 1.152232
s OPTIMUM FOUND

c File: j6020_5.smor10.wcnf
c optimal
c final solution cost: 71
c CPU time: 0.093104
s OPTIMUM FOUND


rcpsp/heur_output_or_constraints/Log=10/heurj60.txt
encoding rcpsp/j60.sm/j6020_6.sm nv: 210858 nc: 488162 enctime: 5.60
encoding rcpsp/j60.sm/j6020_6.sm nv: 60956 nc: 139194 enctime: 0.95
c File: j6020_6.smnaiveor10.wcnf
c optimal
c final solution cost: 97
c CPU time: 1.240958
s OPTIMUM FOUND

c File: j6020_6.smor10.wcnf
c optimal
c final solution cost: 97
c CPU time: 0.168464
s OPTIMUM FOUND


rcpsp/heur_output_or_constraints/Log=10/heurj60.txt
encoding rcpsp/j60.sm/j6020_7.sm nv: 209902 nc: 482515 enctime: 5.39
encoding rcpsp/j60.sm/j6020_7.sm nv: 45298 nc: 102223 enctime: 0.72
c File: j6020_7.smnaiveor10.wcnf
c optimal
c final solution cost: 68
c CPU time: 1.147945
s OPTIMUM FOUND

c File: j6020_7.smor10.wcnf
c optimal
c final solution cost: 68
c CPU time: 0.109950
s OPTIMUM FOUND


rcpsp/heur_output_or_constraints/Log=10/heurj60.txt
encoding rcpsp/j60.sm/j6020_8.sm nv: 178856 nc: 410041 enctime: 4.71
encoding rcpsp/j60.sm/j6020_8.sm nv: 36790 nc: 82486 enctime: 0.59
c File: j6020_8.smnaiveor10.wcnf
c optimal
c final solution cost: 64
c CPU time: 1.024994
s OPTIMUM FOUND

c File: j6020_8.smor10.wcnf
c optimal
c final solution cost: 64
c CPU time: 0.085234
s OPTIMUM FOUND


rcpsp/heur_output_or_constraints/Log=10/heurj60.txt
encoding rcpsp/j60.sm/j6020_9.sm nv: 180411 nc: 442473 enctime: 5.67
encoding rcpsp/j60.sm/j6020_9.sm nv: 37275 nc: 89097 enctime: 0.45
c File: j6020_9.smnaiveor10.wcnf
c optimal
c final solution cost: 72
c CPU time: 1.244561
s OPTIMUM FOUND

c File: j6020_9.smor10.wcnf
c optimal
c final solution cost: 72
c CPU time: 0.102049
s OPTIMUM FOUND


